(assert (exists ((o_0 Bool)(o_1 Bool)(o_2 Bool)(o_3 Bool)(o_4 Bool)(o_5 Bool)(o_6 Bool)(o_7 Bool)(o_8 Bool)(o_9 Bool)(o_10 Bool)(o_11 Bool)(o_12 Bool)(o_13 Bool)(o_14 Bool)(o_15 Bool)(o_16 Bool)(o_17 Bool)(o_18 Bool)(o_19 Bool)(o_20 Bool)(o_21 Bool)(o_22 Bool)(o_23 Bool)(o_24 Bool)(o_25 Bool)(q_0 Bool)(q_1 Bool)(q_2 Bool)(q_3 Bool)(q_4 Bool)(q_5 Bool)(q_6 Bool)(q_7 Bool)(q_8 Bool)(q_9 Bool)(q_10 Bool)(q_11 Bool)(q_12 Bool)(q_13 Bool)(q_14 Bool)(q_15 Bool)(q_16 Bool)(q_17 Bool)(q_18 Bool)(q_19 Bool)(q_20 Bool)(q_21 Bool)(q_22 Bool)(q_23 Bool)) (exists ((p_0 Int)(p_1 Int)(p_2 Int)(p_3 Int)(p_4 Int)(p_5 Int)(p_6 Int)(p_7 Int)(p_8 Int)(p_9 Int)(p_10 Int)(p_11 Int)(p_12 Int)(p_13 Int)(p_14 Int)(p_15 Int)(p_16 Int)(p_17 Int)(p_18 Int)(p_19 Int)(p_20 Int)(p_21 Int)(p_22 Int)(p_23 Int)(p_24 Int)(p_25 Int)(x_0 Int)(x_1 Int)(x_2 Int)(x0_0 Int)(x0_1 Int)(x0_2 Int)) (and (or (not (= x_0 0)) (not (= x_1 0)) (not (= x_2 0))) (and (and (and q_8 q_9 q_7) (or (or (or (and (or (and q_18 q_17 q_23) (and q_21 q_17 q_23)) (or (or (or q_10 q_11) (or q_2 q_1) (or q_4 q_3)) (or (or q_5 q_6) (or q_2 q_1) (or q_4 q_3)))) (and (or (and q_18 q_22 q_20) (and q_21 q_22 q_20)) (or (or (or q_10 q_11) (or q_2 q_1) (or q_4 q_3)) (or (or q_5 q_6) (or q_2 q_1) (or q_4 q_3))))) (and (or (and q_18 q_15 q_23) (and q_21 q_15 q_23)) (or (or (or q_10 q_11) (or q_2 q_1) (or q_4 q_3)) (or (or q_5 q_6) (or q_2 q_1) (or q_4 q_3))))) (or (or (and q_16 q_17 q_23 q_14 q_13 q_19) (and q_16 q_22 q_20 q_14 q_13 q_19)) (and q_16 q_15 q_23 q_14 q_13 q_19)))) (or q_12 q_0)) (and (or (and (not o_0) (< p_0 p_1)) o_1) (or (and (not o_2) (< p_2 p_3)) o_3) (or (and (not o_4) (< p_4 p_5)) o_5) (or (and (not o_6) (< p_6 p_7)) o_7) (or (and (not o_8) (< p_8 p_9)) o_9) (or (and (not o_10) (< p_10 p_11)) o_11) (or (and (not o_12) (< p_12 p_13)) o_13) (or (and (not o_14) (< p_14 p_15)) o_15) (or (and (not o_16) (< p_16 p_17)) o_17) (or (and (not o_18) (< p_18 p_19)) o_19) (or (and (not o_20) (< p_20 p_21)) o_21) (or (and (not o_22) (< p_22 p_23)) o_23) (or (and (not o_24) (< p_24 p_25)) o_25)) (and (or (not q_0) (and (or o_0 (and (<= (* (- 1) x0_0) p_0) (<= (* (- 1) x_0) 0))) (or o_1 (and (<= p_1 (* (- 1) x0_0)) (<= 0 (* (- 1) x_0)))) (or (not o_1) (< 0 (* (- 1) x_0))))) (or (not q_1) (and (or o_2 (and (<= 0 p_2) (<= 0 0))) (or o_3 (and (<= p_3 x0_0) (<= 0 x_0))) (or (not o_3) (< 0 x_0)))) (or (not q_2) (and (or o_4 (and (<= 0 p_4) (<= 0 0))) (or o_5 (and (<= p_5 (* (- 1) x0_0)) (<= 0 (* (- 1) x_0)))) (or (not o_5) (< 0 (* (- 1) x_0))))) (or (not q_3) (and (or o_6 (and (<= (* (- 1) x0_1) p_6) (<= (* (- 1) x_1) 0))) (or o_7 (and (<= p_7 x0_2) (<= 0 x_2))) (or (not o_7) (< 0 x_2)))) (or (not q_4) (and (or o_8 (and (<= x0_1 p_8) (<= x_1 0))) (or o_9 (and (<= p_9 (* (- 1) x0_2)) (<= 0 (* (- 1) x_2)))) (or (not o_9) (< 0 (* (- 1) x_2))))) (or (not q_5) (and (or o_10 (and (<= x0_0 p_10) (<= x_0 0))) (or o_11 (and (<= p_11 0) (<= 0 0))) (or (not o_11) (< 0 0)))) (or (not q_6) (and (or o_12 (and (<= (* (- 1) x0_0) p_12) (<= (* (- 1) x_0) 0))) (or o_13 (and (<= p_13 0) (<= 0 0))) (or (not o_13) (< 0 0)))) (or (not q_7) (and (or o_14 (and (<= (* (- 1) x0_1) p_14) (<= (* (- 1) x_1) 0))) (or o_15 (and (<= p_15 (+ x0_2 1)) (<= 0 x_2))) (or (not o_15) (< 0 x_2)))) (or (not q_8) (and (or o_16 (and (<= (* (- 1) x0_0) p_16) (<= (* (- 1) x_0) 0))) (or o_17 (and (<= p_17 1) (<= 0 0))) (or (not o_17) (< 0 0)))) (or (not q_9) (and (or o_18 (and (<= 0 p_18) (<= 0 0))) (or o_19 (and (<= p_19 (+ x0_0 1)) (<= 0 x_0))) (or (not o_19) (< 0 x_0)))) (or (not q_10) (and (or o_20 (and (<= x0_0 p_20) (<= x_0 0))) (or o_21 (and (<= p_21 1) (<= 0 0))) (or (not o_21) (< 0 0)))) (or (not q_11) (and (or o_22 (and (<= (* (- 1) x0_0) p_22) (<= (* (- 1) x_0) 0))) (or o_23 (and (<= p_23 (- 1)) (<= 0 0))) (or (not o_23) (< 0 0)))) (or (not q_12) (and (or o_24 (and (<= x0_0 p_24) (<= x_0 0))) (or o_25 (and (<= p_25 x0_0) (<= 0 x_0))) (or (not o_25) (< 0 x_0)))) (or (not q_13) (and (= (mod 0 2) (mod (* (- 1) x0_0) 2)) (= (mod 0 2) 0) (= (mod (* (- 1) x_0) 2) 0))) (or (not q_14) (and (= (mod x0_0 2) (mod 0 2)) (= (mod x_0 2) 0) (= (mod 0 2) 0))) (or (not q_15) (and (= (mod 0 2) (mod (+ (* (- 1) x0_0) 2) 2)) (= (mod 0 2) 0) (= (mod (* (- 1) x_0) 2) 0))) (or (not q_16) (and (= (mod x0_0 2) (mod 2 2)) (= (mod x_0 2) 0) (= (mod 0 2) 0))) (or (not q_17) (and (= (mod 0 2) (mod (* (- 1) x0_0) 2)) (= (mod 0 2) 0) (= (mod (* (- 1) x_0) 2) 0))) (or (not q_18) (and (= (mod x0_0 2) (mod 1 2)) (= (mod x_0 2) 0) (= (mod 0 2) 0))) (or (not q_19) (and (= (mod x0_1 2) (mod (* (- 1) x0_2) 2)) (= (mod x_1 2) 0) (= (mod (* (- 1) x_2) 2) 0))) (or (not q_20) (and (= x_1 0) (= (* (- 1) x_2) 0) (= x0_1 (+ (* (- 1) x0_2) 2)))) (or (not q_21) (and (= x_0 0) (= 0 0) (= x0_0 0))) (or (not q_22) (and (= 0 0) (= (* (- 1) x_0) 0) (= 0 (* (- 1) x0_0)))) (or (not q_23) (and (= x_1 0) (= (* (- 1) x_2) 0) (= x0_1 (* (- 1) x0_2)))))))))
(check-sat)
